Version identifier: 12.10.0.0 | 2019-11-26 | 843d4de
CPXPARAM_WorkMem                                 28672
Tried aggregator 2 times.
Aggregator did 30 substitutions.
Reduced MIP has 103 rows, 120 columns, and 462 nonzeros.
Reduced MIP has 120 binaries, 0 generals, 0 SOSs, and 0 indicators.
Presolve time = 0,00 sec. (0,44 ticks)
Found incumbent of value 90,000000 after 0,00 sec. (0,79 ticks)
Probing time = 0,00 sec. (0,16 ticks)
Tried aggregator 1 time.
Detecting symmetries...
MIP Presolve eliminated 30 rows and 0 columns.
MIP Presolve added 60 rows and 0 columns.
Reduced MIP has 133 rows, 120 columns, and 492 nonzeros.
Reduced MIP has 120 binaries, 0 generals, 0 SOSs, and 0 indicators.
Presolve time = 0,00 sec. (0,61 ticks)
Probing time = 0,00 sec. (0,15 ticks)
Clique table members: 322.
MIP emphasis: balance optimality and feasibility.
MIP search method: dynamic search.
Parallel mode: deterministic, using up to 16 threads.
Root relaxation solution time = 0,00 sec. (0,41 ticks)

        Nodes                                         Cuts/
   Node  Left     Objective  IInf  Best Integer    Best Bound    ItCnt     Gap

*     0+    0                           90,0000        0,0000           100,00%
*     0+    0                           56,0000        0,0000           100,00%
      0     0       30,0000    86       56,0000       30,0000       53   46,43%
      0     0       30,0000    86       56,0000     Cuts: 110       67   46,43%
      0     0       30,4564    86       56,0000      Cuts: 72       90   45,61%
      0     0       31,0571    86       56,0000      Cuts: 42      108   44,54%
      0     0       31,0996    86       56,0000      Fract: 2      110   44,47%
      0     0       31,1373    86       56,0000      Fract: 1      111   44,40%
      0     0       39,3587    86       56,0000     Cuts: 106      246   29,72%
      0     0       39,5635    86       56,0000      Fract: 2      264   29,35%
      0     0       39,5935    86       56,0000       Cuts: 2      268   29,30%
      0     0        cutoff             56,0000       56,0000      268    0,00%
Elapsed time = 0,08 sec. (31,27 ticks, tree = 0,01 MB, solutions = 2)

Clique cuts applied:  12
Cover cuts applied:  27
Implied bound cuts applied:  1
Flow cuts applied:  1
Mixed integer rounding cuts applied:  35
Zero-half cuts applied:  18
Gomory fractional cuts applied:  5

Root node processing (before b&c):
  Real time             =    0,09 sec. (31,28 ticks)
Parallel b&c, 16 threads:
  Real time             =    0,00 sec. (0,00 ticks)
  Sync time (average)   =    0,00 sec.
  Wait time (average)   =    0,00 sec.
                          ------------
Total (root+branch&cut) =    0,09 sec. (31,28 ticks)
